
%FILE DATA:	Soccer Computational Problem for MiniZinc Models	%
%AUTHOR:	Jack Wall	%
%CONTACT:  	116397063@umail.ucc.ie			%
%LAST UPDATE:	03/12/2020, 10:36:46						%
%DESCRIPTION: 	123 games played with 33 games left				%


n=13; %number of teams

%Games to play
games=[|2,3|1,11|13,11|2,10|2,6|2,13|3,2|6,8|3,6|1,6|13,10|5,12|11,12|13,4|7,5|9,6|7,1|10,6|12,5|13,9|13,2|12,8|7,12|9,3|7,8|8,3|1,3|1,12|10,8|4,13|5,2|3,5|10,7|];

%Initial points
iPoints=[20,33,30,18,32,18,34,12,29,26,19,29,22];

%POSITION CONSTRAINTS
% [|teamID, operator, position|...]
% operators index:
%  1 for =  operator
%  2 for >  operator
%  3 for >= operator
%  4 for <  operator
%  5 for <= operator
positionConstraints=[|2,3,1|12,2,1|];